c colouring generated by benchmark framework
p edge 23 71
v 1 1
v 2 0
v 3 2
v 4 2
v 5 4
v 6 1
v 7 0
v 8 1
v 9 0
v 10 1
v 11 3
v 12 1
v 13 3
v 14 2
v 15 3
v 16 3
v 17 1
v 18 4
v 19 1
v 20 2
v 21 1
v 22 2
v 23 0
